60
1071
7
40
44
10
22
66
47
46
0 2
0 3
0 5
0 6
0 7
0 9
0 10
0 15
0 17
0 18
0 19
0 20
0 21
0 26
0 27
0 28
0 30
0 31
0 33
0 36
0 42
0 43
0 44
0 45
0 46
0 50
0 52
0 53
0 55
0 56
0 57
0 59
1 2
1 3
1 4
1 5
1 9
1 11
1 14
1 16
1 17
1 19
1 20
1 21
1 22
1 23
1 25
1 26
1 27
1 29
1 30
1 31
1 32
1 35
1 37
1 38
1 40
1 44
1 45
1 46
1 48
1 49
1 50
1 52
1 53
1 54
1 55
1 57
1 59
2 4
2 6
2 7
2 9
2 10
2 11
2 12
2 14
2 15
2 16
2 17
2 18
2 19
2 20
2 21
2 22
2 23
2 24
2 28
2 29
2 32
2 33
2 34
2 37
2 38
2 39
2 40
2 41
2 46
2 47
2 48
2 49
2 50
2 51
2 53
2 55
2 58
3 4
3 7
3 9
3 12
3 14
3 15
3 16
3 17
3 20
3 21
3 23
3 27
3 28
3 30
3 33
3 34
3 35
3 36
3 37
3 41
3 42
3 43
3 44
3 45
3 47
3 49
3 50
3 52
3 53
3 54
3 55
3 57
3 59
4 5
4 7
4 8
4 10
4 11
4 12
4 13
4 17
4 20
4 21
4 22
4 23
4 26
4 27
4 32
4 33
4 34
4 36
4 37
4 39
4 40
4 41
4 44
4 46
4 48
4 51
4 52
4 53
4 54
4 56
4 58
4 59
5 6
5 12
5 14
5 15
5 16
5 18
5 19
5 21
5 22
5 26
5 27
5 28
5 29
5 31
5 33
5 35
5 36
5 37
5 39
5 41
5 42
5 46
5 49
5 50
5 51
5 52
5 53
5 54
5 55
5 59
6 8
6 9
6 10
6 11
6 12
6 14
6 15
6 16
6 17
6 18
6 19
6 20
6 22
6 25
6 28
6 31
6 33
6 34
6 35
6 41
6 48
6 49
6 50
6 51
6 52
6 53
6 54
6 56
6 57
7 8
7 9
7 10
7 11
7 14
7 15
7 16
7 17
7 18
7 19
7 21
7 22
7 23
7 25
7 26
7 27
7 28
7 30
7 31
7 33
7 34
7 35
7 37
7 39
7 42
7 44
7 47
7 49
7 52
7 53
7 56
7 57
7 58
7 59
8 9
8 10
8 11
8 13
8 16
8 17
8 19
8 21
8 22
8 25
8 26
8 27
8 31
8 33
8 35
8 37
8 39
8 40
8 41
8 42
8 44
8 46
8 48
8 50
8 52
8 54
8 55
8 56
8 59
9 10
9 12
9 13
9 15
9 16
9 17
9 19
9 20
9 21
9 22
9 23
9 24
9 26
9 27
9 29
9 30
9 31
9 32
9 33
9 34
9 38
9 39
9 40
9 43
9 45
9 46
9 47
9 48
9 51
9 52
9 53
9 54
9 55
9 59
10 11
10 12
10 13
10 14
10 15
10 16
10 17
10 18
10 19
10 20
10 22
10 28
10 29
10 32
10 34
10 35
10 36
10 39
10 40
10 43
10 45
10 46
10 47
10 49
10 51
10 52
10 53
10 54
10 55
10 56
10 58
10 59
11 13
11 14
11 15
11 18
11 19
11 21
11 23
11 24
11 25
11 26
11 28
11 29
11 30
11 32
11 33
11 34
11 35
11 36
11 40
11 41
11 42
11 43
11 45
11 47
11 48
11 49
11 50
11 51
11 52
11 54
11 55
11 56
11 58
12 13
12 14
12 15
12 16
12 17
12 18
12 19
12 22
12 23
12 25
12 26
12 28
12 29
12 30
12 32
12 34
12 36
12 37
12 38
12 39
12 42
12 43
12 44
12 45
12 46
12 48
12 49
12 52
12 53
12 54
12 55
12 56
12 58
13 14
13 15
13 18
13 20
13 21
13 22
13 26
13 27
13 28
13 29
13 33
13 35
13 36
13 37
13 38
13 39
13 42
13 44
13 45
13 48
13 51
13 53
13 54
13 55
13 56
13 58
14 18
14 19
14 21
14 27
14 29
14 31
14 32
14 33
14 34
14 35
14 37
14 38
14 39
14 40
14 41
14 42
14 43
14 44
14 45
14 46
14 48
14 49
14 50
14 52
14 53
14 58
15 17
15 18
15 19
15 22
15 24
15 25
15 26
15 29
15 30
15 33
15 34
15 35
15 39
15 40
15 42
15 45
15 47
15 49
15 50
15 51
15 52
15 55
15 56
15 58
16 17
16 18
16 19
16 21
16 22
16 23
16 24
16 25
16 26
16 27
16 29
16 30
16 32
16 34
16 35
16 36
16 38
16 39
16 41
16 42
16 44
16 45
16 46
16 50
16 51
16 52
16 55
16 56
16 57
17 18
17 20
17 21
17 22
17 23
17 25
17 27
17 28
17 29
17 37
17 38
17 39
17 42
17 43
17 45
17 46
17 47
17 48
17 50
17 52
17 53
17 54
17 55
17 56
17 58
18 19
18 20
18 22
18 23
18 28
18 29
18 30
18 32
18 35
18 36
18 37
18 38
18 39
18 40
18 41
18 47
18 48
18 50
18 51
18 52
18 53
18 54
18 55
18 56
18 58
18 59
19 20
19 21
19 22
19 23
19 24
19 25
19 26
19 27
19 28
19 31
19 32
19 34
19 35
19 36
19 37
19 38
19 39
19 40
19 46
19 48
19 50
19 52
19 53
19 54
19 55
19 56
19 57
19 58
20 21
20 22
20 24
20 25
20 28
20 29
20 31
20 32
20 33
20 34
20 35
20 36
20 39
20 40
20 41
20 44
20 45
20 51
20 53
20 54
20 57
20 58
20 59
21 22
21 23
21 24
21 25
21 26
21 28
21 30
21 32
21 33
21 37
21 41
21 43
21 44
21 45
21 47
21 48
21 49
21 50
21 53
21 54
21 56
21 58
22 24
22 25
22 26
22 27
22 28
22 30
22 31
22 32
22 39
22 42
22 44
22 45
22 46
22 47
22 48
22 50
22 52
22 53
22 54
22 55
22 56
22 57
22 59
23 26
23 28
23 32
23 34
23 36
23 37
23 38
23 39
23 42
23 45
23 46
23 47
23 48
23 50
23 51
23 52
23 53
23 54
23 55
23 56
23 57
23 58
23 59
24 25
24 28
24 32
24 33
24 34
24 36
24 38
24 39
24 40
24 41
24 43
24 44
24 46
24 47
24 50
24 51
24 52
24 54
24 55
25 26
25 27
25 28
25 29
25 32
25 33
25 34
25 35
25 36
25 37
25 39
25 40
25 41
25 42
25 43
25 44
25 46
25 47
25 48
25 49
25 50
25 53
25 54
25 55
25 56
25 58
26 27
26 29
26 34
26 36
26 38
26 39
26 40
26 41
26 42
26 43
26 46
26 49
26 50
26 51
26 53
26 55
26 57
26 59
27 28
27 29
27 31
27 32
27 33
27 34
27 36
27 37
27 40
27 42
27 44
27 49
27 50
27 52
27 53
27 55
28 29
28 30
28 31
28 32
28 33
28 35
28 38
28 39
28 40
28 41
28 42
28 43
28 44
28 46
28 47
28 48
28 50
28 52
28 53
28 55
29 30
29 31
29 33
29 34
29 35
29 36
29 37
29 39
29 42
29 45
29 46
29 47
29 49
29 50
29 53
29 55
29 58
30 33
30 34
30 35
30 39
30 42
30 43
30 44
30 46
30 47
30 50
30 57
30 58
31 32
31 34
31 35
31 36
31 37
31 38
31 39
31 40
31 43
31 45
31 47
31 48
31 50
31 51
31 57
31 58
32 33
32 35
32 36
32 37
32 38
32 40
32 42
32 45
32 47
32 52
32 54
32 56
32 57
33 34
33 36
33 37
33 38
33 39
33 41
33 42
33 44
33 46
33 47
33 48
33 49
33 50
33 51
33 53
33 55
33 56
33 57
33 59
34 35
34 36
34 39
34 40
34 41
34 43
34 45
34 46
34 47
34 48
34 52
34 54
34 55
34 56
34 57
34 58
35 36
35 37
35 38
35 39
35 41
35 44
35 46
35 47
35 48
35 50
35 52
35 55
35 57
35 58
35 59
36 37
36 38
36 39
36 40
36 43
36 45
36 46
36 48
36 50
36 53
36 56
36 59
37 38
37 39
37 44
37 45
37 50
37 51
37 52
37 53
37 54
37 55
37 56
37 57
37 58
37 59
38 40
38 41
38 46
38 47
38 48
38 51
38 52
38 53
38 54
38 55
38 56
38 57
38 58
38 59
39 40
39 41
39 42
39 46
39 50
39 51
39 52
39 53
39 54
39 55
39 57
39 59
40 43
40 47
40 49
40 50
40 52
40 54
40 55
40 56
40 58
40 59
41 43
41 45
41 46
41 48
41 49
41 51
41 52
41 53
41 54
41 55
41 56
41 57
41 58
41 59
42 44
42 45
42 46
42 47
42 50
42 51
42 53
42 54
42 56
42 57
42 58
43 44
43 45
43 47
43 49
43 51
43 53
43 54
43 55
43 57
44 45
44 46
44 47
44 48
44 49
44 53
44 55
44 57
44 58
44 59
45 47
45 48
45 49
45 50
45 51
45 52
45 53
45 56
45 57
45 59
46 50
46 52
46 53
46 56
46 57
46 58
47 49
47 51
47 53
47 54
47 56
47 57
48 49
48 50
48 54
48 56
48 58
48 59
49 50
49 54
49 56
49 57
49 58
50 51
50 52
50 53
50 55
50 56
50 57
50 58
50 59
51 52
51 53
51 55
51 57
51 59
52 53
52 56
52 59
53 56
53 58
55 56
55 57
56 57
56 59
57 58
57 59
58 59
56 29 8 28 17 58 31 9 26
22 3 40 16 0 33 35 43 4
54 59 50 1 13 41 5 27 6
14 30 7 19 37 47 44 15 20
23 21 11 55 34 38 46 57 48
12 39 49 42 2 53 51 52 24
45 18 32 10 25 36
